c File: flat50_3_0.col
c
c SOURCE: Joseph Culberson (joe@cs.ualberta.ca)
c DESCRIPTION: Quasi-random coloring problem
c              generated with flatness = 0
c                             probability = 0.139
c                             known coloring = 3
c                             random seed = 1905
c              Creation Date:  Tue Jun  9 12:20:50 1998
c Maximum degree = 8 Minimum degree = 1
c p edge 50 115
c cnf created by edge2cnf
p cnf 150 545
-1 -2 0
-1 -3 0
-2 -3 0
1 2 3 0
-4 -5 0
-4 -6 0
-5 -6 0
4 5 6 0
-7 -8 0
-7 -9 0
-8 -9 0
7 8 9 0
-10 -11 0
-10 -12 0
-11 -12 0
10 11 12 0
-13 -14 0
-13 -15 0
-14 -15 0
13 14 15 0
-16 -17 0
-16 -18 0
-17 -18 0
16 17 18 0
-19 -20 0
-19 -21 0
-20 -21 0
19 20 21 0
-22 -23 0
-22 -24 0
-23 -24 0
22 23 24 0
-25 -26 0
-25 -27 0
-26 -27 0
25 26 27 0
-28 -29 0
-28 -30 0
-29 -30 0
28 29 30 0
-31 -32 0
-31 -33 0
-32 -33 0
31 32 33 0
-34 -35 0
-34 -36 0
-35 -36 0
34 35 36 0
-37 -38 0
-37 -39 0
-38 -39 0
37 38 39 0
-40 -41 0
-40 -42 0
-41 -42 0
40 41 42 0
-43 -44 0
-43 -45 0
-44 -45 0
43 44 45 0
-46 -47 0
-46 -48 0
-47 -48 0
46 47 48 0
-49 -50 0
-49 -51 0
-50 -51 0
49 50 51 0
-52 -53 0
-52 -54 0
-53 -54 0
52 53 54 0
-55 -56 0
-55 -57 0
-56 -57 0
55 56 57 0
-58 -59 0
-58 -60 0
-59 -60 0
58 59 60 0
-61 -62 0
-61 -63 0
-62 -63 0
61 62 63 0
-64 -65 0
-64 -66 0
-65 -66 0
64 65 66 0
-67 -68 0
-67 -69 0
-68 -69 0
67 68 69 0
-70 -71 0
-70 -72 0
-71 -72 0
70 71 72 0
-73 -74 0
-73 -75 0
-74 -75 0
73 74 75 0
-76 -77 0
-76 -78 0
-77 -78 0
76 77 78 0
-79 -80 0
-79 -81 0
-80 -81 0
79 80 81 0
-82 -83 0
-82 -84 0
-83 -84 0
82 83 84 0
-85 -86 0
-85 -87 0
-86 -87 0
85 86 87 0
-88 -89 0
-88 -90 0
-89 -90 0
88 89 90 0
-91 -92 0
-91 -93 0
-92 -93 0
91 92 93 0
-94 -95 0
-94 -96 0
-95 -96 0
94 95 96 0
-97 -98 0
-97 -99 0
-98 -99 0
97 98 99 0
-100 -101 0
-100 -102 0
-101 -102 0
100 101 102 0
-103 -104 0
-103 -105 0
-104 -105 0
103 104 105 0
-106 -107 0
-106 -108 0
-107 -108 0
106 107 108 0
-109 -110 0
-109 -111 0
-110 -111 0
109 110 111 0
-112 -113 0
-112 -114 0
-113 -114 0
112 113 114 0
-115 -116 0
-115 -117 0
-116 -117 0
115 116 117 0
-118 -119 0
-118 -120 0
-119 -120 0
118 119 120 0
-121 -122 0
-121 -123 0
-122 -123 0
121 122 123 0
-124 -125 0
-124 -126 0
-125 -126 0
124 125 126 0
-127 -128 0
-127 -129 0
-128 -129 0
127 128 129 0
-130 -131 0
-130 -132 0
-131 -132 0
130 131 132 0
-133 -134 0
-133 -135 0
-134 -135 0
133 134 135 0
-136 -137 0
-136 -138 0
-137 -138 0
136 137 138 0
-139 -140 0
-139 -141 0
-140 -141 0
139 140 141 0
-142 -143 0
-142 -144 0
-143 -144 0
142 143 144 0
-145 -146 0
-145 -147 0
-146 -147 0
145 146 147 0
-148 -149 0
-148 -150 0
-149 -150 0
148 149 150 0
-52 -1 0
-53 -2 0
-54 -3 0
-76 -1 0
-77 -2 0
-78 -3 0
-82 -1 0
-83 -2 0
-84 -3 0
-85 -1 0
-86 -2 0
-87 -3 0
-103 -1 0
-104 -2 0
-105 -3 0
-52 -4 0
-53 -5 0
-54 -6 0
-61 -4 0
-62 -5 0
-63 -6 0
-85 -4 0
-86 -5 0
-87 -6 0
-97 -4 0
-98 -5 0
-99 -6 0
-106 -4 0
-107 -5 0
-108 -6 0
-121 -4 0
-122 -5 0
-123 -6 0
-133 -4 0
-134 -5 0
-135 -6 0
-64 -7 0
-65 -8 0
-66 -9 0
-85 -7 0
-86 -8 0
-87 -9 0
-100 -7 0
-101 -8 0
-102 -9 0
-109 -7 0
-110 -8 0
-111 -9 0
-127 -7 0
-128 -8 0
-129 -9 0
-118 -10 0
-119 -11 0
-120 -12 0
-130 -10 0
-131 -11 0
-132 -12 0
-136 -10 0
-137 -11 0
-138 -12 0
-76 -13 0
-77 -14 0
-78 -15 0
-91 -13 0
-92 -14 0
-93 -15 0
-127 -13 0
-128 -14 0
-129 -15 0
-148 -13 0
-149 -14 0
-150 -15 0
-58 -16 0
-59 -17 0
-60 -18 0
-67 -16 0
-68 -17 0
-69 -18 0
-82 -16 0
-83 -17 0
-84 -18 0
-106 -16 0
-107 -17 0
-108 -18 0
-118 -16 0
-119 -17 0
-120 -18 0
-133 -16 0
-134 -17 0
-135 -18 0
-148 -16 0
-149 -17 0
-150 -18 0
-94 -19 0
-95 -20 0
-96 -21 0
-103 -19 0
-104 -20 0
-105 -21 0
-106 -19 0
-107 -20 0
-108 -21 0
-64 -22 0
-65 -23 0
-66 -24 0
-79 -22 0
-80 -23 0
-81 -24 0
-103 -22 0
-104 -23 0
-105 -24 0
-118 -22 0
-119 -23 0
-120 -24 0
-121 -22 0
-122 -23 0
-123 -24 0
-133 -22 0
-134 -23 0
-135 -24 0
-52 -25 0
-53 -26 0
-54 -27 0
-61 -28 0
-62 -29 0
-63 -30 0
-82 -28 0
-83 -29 0
-84 -30 0
-91 -28 0
-92 -29 0
-93 -30 0
-94 -28 0
-95 -29 0
-96 -30 0
-70 -31 0
-71 -32 0
-72 -33 0
-76 -31 0
-77 -32 0
-78 -33 0
-82 -31 0
-83 -32 0
-84 -33 0
-136 -31 0
-137 -32 0
-138 -33 0
-70 -34 0
-71 -35 0
-72 -36 0
-88 -34 0
-89 -35 0
-90 -36 0
-115 -34 0
-116 -35 0
-117 -36 0
-121 -34 0
-122 -35 0
-123 -36 0
-148 -34 0
-149 -35 0
-150 -36 0
-61 -37 0
-62 -38 0
-63 -39 0
-76 -37 0
-77 -38 0
-78 -39 0
-106 -37 0
-107 -38 0
-108 -39 0
-115 -37 0
-116 -38 0
-117 -39 0
-118 -37 0
-119 -38 0
-120 -39 0
-127 -37 0
-128 -38 0
-129 -39 0
-100 -40 0
-101 -41 0
-102 -42 0
-109 -40 0
-110 -41 0
-111 -42 0
-73 -43 0
-74 -44 0
-75 -45 0
-103 -43 0
-104 -44 0
-105 -45 0
-130 -43 0
-131 -44 0
-132 -45 0
-55 -46 0
-56 -47 0
-57 -48 0
-61 -46 0
-62 -47 0
-63 -48 0
-94 -46 0
-95 -47 0
-96 -48 0
-97 -46 0
-98 -47 0
-99 -48 0
-145 -46 0
-146 -47 0
-147 -48 0
-52 -49 0
-53 -50 0
-54 -51 0
-55 -49 0
-56 -50 0
-57 -51 0
-85 -49 0
-86 -50 0
-87 -51 0
-109 -49 0
-110 -50 0
-111 -51 0
-133 -49 0
-134 -50 0
-135 -51 0
-136 -49 0
-137 -50 0
-138 -51 0
-139 -49 0
-140 -50 0
-141 -51 0
-109 -52 0
-110 -53 0
-111 -54 0
-106 -55 0
-107 -56 0
-108 -57 0
-130 -58 0
-131 -59 0
-132 -60 0
-136 -58 0
-137 -59 0
-138 -60 0
-118 -61 0
-119 -62 0
-120 -63 0
-127 -61 0
-128 -62 0
-129 -63 0
-145 -61 0
-146 -62 0
-147 -63 0
-148 -61 0
-149 -62 0
-150 -63 0
-103 -64 0
-104 -65 0
-105 -66 0
-106 -64 0
-107 -65 0
-108 -66 0
-148 -64 0
-149 -65 0
-150 -66 0
-106 -67 0
-107 -68 0
-108 -69 0
-112 -67 0
-113 -68 0
-114 -69 0
-121 -67 0
-122 -68 0
-123 -69 0
-115 -70 0
-116 -71 0
-117 -72 0
-142 -70 0
-143 -71 0
-144 -72 0
-124 -73 0
-125 -74 0
-126 -75 0
-130 -73 0
-131 -74 0
-132 -75 0
-148 -73 0
-149 -74 0
-150 -75 0
-121 -76 0
-122 -77 0
-123 -78 0
-139 -76 0
-140 -77 0
-141 -78 0
-142 -76 0
-143 -77 0
-144 -78 0
-109 -79 0
-110 -80 0
-111 -81 0
-115 -79 0
-116 -80 0
-117 -81 0
-139 -79 0
-140 -80 0
-141 -81 0
-118 -82 0
-119 -83 0
-120 -84 0
-139 -82 0
-140 -83 0
-141 -84 0
-109 -85 0
-110 -86 0
-111 -87 0
-112 -88 0
-113 -89 0
-114 -90 0
-115 -88 0
-116 -89 0
-117 -90 0
-136 -88 0
-137 -89 0
-138 -90 0
-145 -88 0
-146 -89 0
-147 -90 0
-124 -91 0
-125 -92 0
-126 -93 0
-133 -91 0
-134 -92 0
-135 -93 0
-112 -97 0
-113 -98 0
-114 -99 0
-121 -97 0
-122 -98 0
-123 -99 0
-124 -97 0
-125 -98 0
-126 -99 0
-106 -100 0
-107 -101 0
-108 -102 0
